********************* Iteration   1 ********************
************* LP 1  ******************
Parallel mode: deterministic, using up to 8 threads for concurrent optimization.
Tried aggregator 1 time.
LP Presolve eliminated 136 rows and 136 columns.
Reduced LP has 64 rows, 70 columns, and 248 nonzeros.
Presolve time = 0.00 sec. (0.09 ticks)

Dual simplex solved model.

************* QP 1  *******************
Parallel mode: deterministic, using up to 8 threads for concurrent optimization.

Dual simplex solved model.

********************* Iteration   2 ********************
************* LP 1  ******************
Parallel mode: deterministic, using up to 8 threads for concurrent optimization.
Tried aggregator 1 time.
LP Presolve eliminated 12 rows and 18 columns.
All rows and columns eliminated.
Presolve time = 0.00 sec. (0.00 ticks)
************* QP 1  *******************
Parallel mode: deterministic, using up to 8 threads for concurrent optimization.

Dual simplex solved model.

********************* Iteration   3 ********************
************* LP 1  ******************
Parallel mode: deterministic, using up to 8 threads for concurrent optimization.
Tried aggregator 1 time.
LP Presolve eliminated 10 rows and 16 columns.
All rows and columns eliminated.
Presolve time = 0.00 sec. (0.00 ticks)
************* QP 1  *******************
Parallel mode: deterministic, using up to 8 threads for concurrent optimization.

Dual simplex solved model.

********************* Iteration   4 ********************
************* LP 1  ******************
Parallel mode: deterministic, using up to 8 threads for concurrent optimization.
Tried aggregator 1 time.
LP Presolve eliminated 10 rows and 16 columns.
All rows and columns eliminated.
Presolve time = 0.00 sec. (0.00 ticks)
************* QP 1  *******************
Parallel mode: deterministic, using up to 8 threads for concurrent optimization.

Dual simplex solved model.

********************* Iteration   5 ********************
************* LP 1  ******************
Parallel mode: deterministic, using up to 8 threads for concurrent optimization.
Tried aggregator 1 time.
LP Presolve eliminated 10 rows and 16 columns.
All rows and columns eliminated.
Presolve time = 0.00 sec. (0.00 ticks)
************* QP 1  *******************
Parallel mode: deterministic, using up to 8 threads for concurrent optimization.

Dual simplex solved model.

********************* Iteration   6 ********************
************* LP 1  ******************
Parallel mode: deterministic, using up to 8 threads for concurrent optimization.
Tried aggregator 1 time.
LP Presolve eliminated 10 rows and 16 columns.
All rows and columns eliminated.
Presolve time = 0.00 sec. (0.00 ticks)
************* QP 1  *******************
Parallel mode: deterministic, using up to 8 threads for concurrent optimization.

Dual simplex solved model.

********************* Iteration   7 ********************
************* LP 1  ******************
Parallel mode: deterministic, using up to 8 threads for concurrent optimization.
Tried aggregator 1 time.
LP Presolve eliminated 10 rows and 16 columns.
All rows and columns eliminated.
Presolve time = 0.00 sec. (0.00 ticks)
************* QP 1  *******************
Parallel mode: deterministic, using up to 8 threads for concurrent optimization.

Dual simplex solved model.

********************* Iteration   8 ********************
************* LP 1  ******************
Parallel mode: deterministic, using up to 8 threads for concurrent optimization.
Tried aggregator 1 time.
LP Presolve eliminated 10 rows and 16 columns.
All rows and columns eliminated.
Presolve time = 0.00 sec. (0.00 ticks)
************* QP 1  *******************
Parallel mode: deterministic, using up to 8 threads for concurrent optimization.

Dual simplex solved model.

********************* Iteration   9 ********************
************* LP 1  ******************
Parallel mode: deterministic, using up to 8 threads for concurrent optimization.
Tried aggregator 1 time.
LP Presolve eliminated 10 rows and 16 columns.
All rows and columns eliminated.
Presolve time = 0.00 sec. (0.00 ticks)
************* QP 1  *******************
Parallel mode: deterministic, using up to 8 threads for concurrent optimization.

Dual simplex solved model.

********************* Iteration  10 ********************
************* LP 1  ******************
Parallel mode: deterministic, using up to 8 threads for concurrent optimization.
Tried aggregator 1 time.
LP Presolve eliminated 10 rows and 16 columns.
All rows and columns eliminated.
Presolve time = 0.00 sec. (0.00 ticks)
************* QP 1  *******************
Parallel mode: deterministic, using up to 8 threads for concurrent optimization.

Dual simplex solved model.

********************* Iteration  11 ********************
************* LP 1  ******************
Parallel mode: deterministic, using up to 8 threads for concurrent optimization.
Tried aggregator 1 time.
LP Presolve eliminated 10 rows and 16 columns.
All rows and columns eliminated.
Presolve time = 0.00 sec. (0.00 ticks)
************* QP 1  *******************
Parallel mode: deterministic, using up to 8 threads for concurrent optimization.

Dual simplex solved model.

********************* Iteration  12 ********************
************* LP 1  ******************
Parallel mode: deterministic, using up to 8 threads for concurrent optimization.
Tried aggregator 1 time.
LP Presolve eliminated 10 rows and 16 columns.
All rows and columns eliminated.
Presolve time = 0.00 sec. (0.00 ticks)
************* QP 1  *******************
Parallel mode: deterministic, using up to 8 threads for concurrent optimization.

Dual simplex solved model.

********************* Iteration  13 ********************
************* LP 1  ******************
Parallel mode: deterministic, using up to 8 threads for concurrent optimization.
Tried aggregator 1 time.
LP Presolve eliminated 10 rows and 16 columns.
All rows and columns eliminated.
Presolve time = 0.00 sec. (0.00 ticks)
************* QP 1  *******************
Parallel mode: deterministic, using up to 8 threads for concurrent optimization.

Dual simplex solved model.

********************* Iteration  14 ********************
************* LP 1  ******************
Parallel mode: deterministic, using up to 8 threads for concurrent optimization.
Tried aggregator 1 time.
LP Presolve eliminated 10 rows and 16 columns.
All rows and columns eliminated.
Presolve time = 0.00 sec. (0.00 ticks)
************* QP 1  *******************
Parallel mode: deterministic, using up to 8 threads for concurrent optimization.

Dual simplex solved model.

********************* Iteration  15 ********************
************* LP 1  ******************
Parallel mode: deterministic, using up to 8 threads for concurrent optimization.
Tried aggregator 1 time.
LP Presolve eliminated 10 rows and 16 columns.
All rows and columns eliminated.
Presolve time = 0.00 sec. (0.00 ticks)
************* QP 1  *******************
Parallel mode: deterministic, using up to 8 threads for concurrent optimization.

Dual simplex solved model.

********************* Iteration  16 ********************
************* LP 1  ******************
Parallel mode: deterministic, using up to 8 threads for concurrent optimization.
Tried aggregator 1 time.
LP Presolve eliminated 10 rows and 16 columns.
All rows and columns eliminated.
Presolve time = 0.00 sec. (0.00 ticks)
************* QP 1  *******************
Parallel mode: deterministic, using up to 8 threads for concurrent optimization.

Dual simplex solved model.

************* LP 2  ******************
Parallel mode: deterministic, using up to 8 threads for concurrent optimization.

Dual simplex solved model.

************* QP 2  *******************
Parallel mode: deterministic, using up to 8 threads for concurrent optimization.

Dual simplex solved model.

********************* Iteration  17 ********************
************* LP 1  ******************
Parallel mode: deterministic, using up to 8 threads for concurrent optimization.
Tried aggregator 1 time.
LP Presolve eliminated 11 rows and 17 columns.
All rows and columns eliminated.
Presolve time = 0.00 sec. (0.00 ticks)
************* QP 1  *******************
Parallel mode: deterministic, using up to 8 threads for concurrent optimization.

Dual simplex solved model.

********************* Iteration  18 ********************
************* LP 1  ******************
Parallel mode: deterministic, using up to 8 threads for concurrent optimization.
Tried aggregator 1 time.
LP Presolve eliminated 11 rows and 17 columns.
All rows and columns eliminated.
Presolve time = 0.00 sec. (0.00 ticks)
************* QP 1  *******************
Parallel mode: deterministic, using up to 8 threads for concurrent optimization.

Dual simplex solved model.

********************* Iteration  19 ********************
************* LP 1  ******************
Parallel mode: deterministic, using up to 8 threads for concurrent optimization.
Tried aggregator 1 time.
LP Presolve eliminated 11 rows and 17 columns.
All rows and columns eliminated.
Presolve time = 0.00 sec. (0.00 ticks)
************* QP 1  *******************
Parallel mode: deterministic, using up to 8 threads for concurrent optimization.

Dual simplex solved model.

********************* Iteration  20 ********************
************* LP 1  ******************
Parallel mode: deterministic, using up to 8 threads for concurrent optimization.
Tried aggregator 1 time.
LP Presolve eliminated 11 rows and 17 columns.
All rows and columns eliminated.
Presolve time = 0.00 sec. (0.00 ticks)
************* QP 1  *******************
Parallel mode: deterministic, using up to 8 threads for concurrent optimization.

Dual simplex solved model.

********************* Iteration  21 ********************
************* LP 1  ******************
Parallel mode: deterministic, using up to 8 threads for concurrent optimization.
Tried aggregator 1 time.
LP Presolve eliminated 11 rows and 17 columns.
All rows and columns eliminated.
Presolve time = 0.00 sec. (0.00 ticks)
************* QP 1  *******************
Parallel mode: deterministic, using up to 8 threads for concurrent optimization.

Dual simplex solved model.

************* LP 2  ******************
Parallel mode: deterministic, using up to 8 threads for concurrent optimization.

Dual simplex solved model.

************* QP 2  *******************
Parallel mode: deterministic, using up to 8 threads for concurrent optimization.

Dual simplex solved model.

********************* Iteration  22 ********************
************* LP 1  ******************
Parallel mode: deterministic, using up to 8 threads for concurrent optimization.
Tried aggregator 1 time.
LP Presolve eliminated 12 rows and 18 columns.
All rows and columns eliminated.
Presolve time = 0.00 sec. (0.00 ticks)
************* QP 1  *******************
Parallel mode: deterministic, using up to 8 threads for concurrent optimization.

Dual simplex solved model.

********************* Iteration  23 ********************
************* LP 1  ******************
Parallel mode: deterministic, using up to 8 threads for concurrent optimization.
Tried aggregator 1 time.
LP Presolve eliminated 12 rows and 18 columns.
All rows and columns eliminated.
Presolve time = 0.00 sec. (0.00 ticks)
************* QP 1  *******************
Parallel mode: deterministic, using up to 8 threads for concurrent optimization.

Dual simplex solved model.

************* LP 2  ******************
Parallel mode: deterministic, using up to 8 threads for concurrent optimization.
Using devex.

Primal simplex solved model.

************* QP 2  *******************
Parallel mode: deterministic, using up to 8 threads for concurrent optimization.

Dual simplex solved model.

********************* Iteration  24 ********************
************* LP 1  ******************
Parallel mode: deterministic, using up to 8 threads for concurrent optimization.
Tried aggregator 1 time.
LP Presolve eliminated 13 rows and 19 columns.
All rows and columns eliminated.
Presolve time = 0.00 sec. (0.00 ticks)
************* QP 1  *******************
Parallel mode: deterministic, using up to 8 threads for concurrent optimization.

Dual simplex solved model.

********************* Iteration  25 ********************
************* LP 1  ******************
Parallel mode: deterministic, using up to 8 threads for concurrent optimization.
Tried aggregator 1 time.
LP Presolve eliminated 13 rows and 19 columns.
All rows and columns eliminated.
Presolve time = 0.00 sec. (0.00 ticks)
************* QP 1  *******************
Parallel mode: deterministic, using up to 8 threads for concurrent optimization.

Dual simplex solved model.

************* LP 2  ******************
Parallel mode: deterministic, using up to 8 threads for concurrent optimization.
Using devex.

Primal simplex solved model.

************* QP 2  *******************
Parallel mode: deterministic, using up to 8 threads for concurrent optimization.

Dual simplex solved model.

********************* Iteration  26 ********************
************* LP 1  ******************
Parallel mode: deterministic, using up to 8 threads for concurrent optimization.
Tried aggregator 1 time.
LP Presolve eliminated 14 rows and 20 columns.
All rows and columns eliminated.
Presolve time = 0.00 sec. (0.00 ticks)
************* QP 1  *******************
Parallel mode: deterministic, using up to 8 threads for concurrent optimization.

Dual simplex solved model.

********************* Iteration  27 ********************
************* LP 1  ******************
Parallel mode: deterministic, using up to 8 threads for concurrent optimization.
Tried aggregator 1 time.
LP Presolve eliminated 12 rows and 18 columns.
All rows and columns eliminated.
Presolve time = 0.00 sec. (0.00 ticks)
************* QP 1  *******************
Parallel mode: deterministic, using up to 8 threads for concurrent optimization.

Dual simplex solved model.

********************* Iteration  28 ********************
************* LP 1  ******************
Parallel mode: deterministic, using up to 8 threads for concurrent optimization.
Tried aggregator 1 time.
LP Presolve eliminated 12 rows and 18 columns.
All rows and columns eliminated.
Presolve time = 0.00 sec. (0.00 ticks)
************* QP 1  *******************
Parallel mode: deterministic, using up to 8 threads for concurrent optimization.

Dual simplex solved model.

********************* Iteration  29 ********************
************* LP 1  ******************
Parallel mode: deterministic, using up to 8 threads for concurrent optimization.
Tried aggregator 1 time.
LP Presolve eliminated 12 rows and 18 columns.
All rows and columns eliminated.
Presolve time = 0.00 sec. (0.00 ticks)
************* QP 1  *******************
Parallel mode: deterministic, using up to 8 threads for concurrent optimization.

Dual simplex solved model.

********************* Iteration  30 ********************
************* LP 1  ******************
Parallel mode: deterministic, using up to 8 threads for concurrent optimization.
Tried aggregator 1 time.
LP Presolve eliminated 12 rows and 18 columns.
All rows and columns eliminated.
Presolve time = 0.00 sec. (0.00 ticks)
************* QP 1  *******************
Parallel mode: deterministic, using up to 8 threads for concurrent optimization.

Dual simplex solved model.

************* LP 2  ******************
Parallel mode: deterministic, using up to 8 threads for concurrent optimization.
Using devex.

Primal simplex solved model.

************* QP 2  *******************
Parallel mode: deterministic, using up to 8 threads for concurrent optimization.

Dual simplex solved model.

********************* Iteration  31 ********************
************* LP 1  ******************
Parallel mode: deterministic, using up to 8 threads for concurrent optimization.
Tried aggregator 1 time.
LP Presolve eliminated 19 rows and 25 columns.
All rows and columns eliminated.
Presolve time = 0.00 sec. (0.01 ticks)
************* QP 1  *******************
Parallel mode: deterministic, using up to 8 threads for concurrent optimization.

Dual simplex solved model.

********************* Iteration  32 ********************
************* LP 1  ******************
Parallel mode: deterministic, using up to 8 threads for concurrent optimization.
Tried aggregator 1 time.
LP Presolve eliminated 19 rows and 25 columns.
All rows and columns eliminated.
Presolve time = 0.00 sec. (0.01 ticks)
************* QP 1  *******************
Parallel mode: deterministic, using up to 8 threads for concurrent optimization.

Dual simplex solved model.

********************* Iteration  33 ********************
************* LP 1  ******************
Parallel mode: deterministic, using up to 8 threads for concurrent optimization.
Tried aggregator 1 time.
LP Presolve eliminated 19 rows and 25 columns.
All rows and columns eliminated.
Presolve time = 0.00 sec. (0.01 ticks)
************* QP 1  *******************
Parallel mode: deterministic, using up to 8 threads for concurrent optimization.

Dual simplex solved model.

********************* Iteration  34 ********************
************* LP 1  ******************
Parallel mode: deterministic, using up to 8 threads for concurrent optimization.
Tried aggregator 1 time.
LP Presolve eliminated 19 rows and 25 columns.
All rows and columns eliminated.
Presolve time = 0.00 sec. (0.01 ticks)
************* QP 1  *******************
Parallel mode: deterministic, using up to 8 threads for concurrent optimization.

Dual simplex solved model.

********************* Iteration  35 ********************
************* LP 1  ******************
Parallel mode: deterministic, using up to 8 threads for concurrent optimization.
Tried aggregator 1 time.
LP Presolve eliminated 19 rows and 25 columns.
All rows and columns eliminated.
Presolve time = 0.00 sec. (0.01 ticks)
************* QP 1  *******************
Parallel mode: deterministic, using up to 8 threads for concurrent optimization.

Dual simplex solved model.

********************* Iteration  36 ********************
************* LP 1  ******************
Parallel mode: deterministic, using up to 8 threads for concurrent optimization.
Tried aggregator 1 time.
LP Presolve eliminated 19 rows and 25 columns.
All rows and columns eliminated.
Presolve time = 0.00 sec. (0.01 ticks)
************* QP 1  *******************
Parallel mode: deterministic, using up to 8 threads for concurrent optimization.

Dual simplex solved model.

********************* Iteration  37 ********************
************* LP 1  ******************
Parallel mode: deterministic, using up to 8 threads for concurrent optimization.
Tried aggregator 1 time.
LP Presolve eliminated 19 rows and 25 columns.
All rows and columns eliminated.
Presolve time = 0.00 sec. (0.01 ticks)
************* QP 1  *******************
Parallel mode: deterministic, using up to 8 threads for concurrent optimization.

Dual simplex solved model.

********************* Iteration  38 ********************
************* LP 1  ******************
Parallel mode: deterministic, using up to 8 threads for concurrent optimization.
Tried aggregator 1 time.
LP Presolve eliminated 19 rows and 25 columns.
All rows and columns eliminated.
Presolve time = 0.00 sec. (0.01 ticks)
************* QP 1  *******************
Parallel mode: deterministic, using up to 8 threads for concurrent optimization.

Dual simplex solved model.

********************* Iteration  39 ********************
************* LP 1  ******************
Parallel mode: deterministic, using up to 8 threads for concurrent optimization.
Tried aggregator 1 time.
LP Presolve eliminated 19 rows and 25 columns.
All rows and columns eliminated.
Presolve time = 0.00 sec. (0.01 ticks)
************* QP 1  *******************
Parallel mode: deterministic, using up to 8 threads for concurrent optimization.

Dual simplex solved model.

********************* Iteration  40 ********************
************* LP 1  ******************
Parallel mode: deterministic, using up to 8 threads for concurrent optimization.
Tried aggregator 1 time.
LP Presolve eliminated 19 rows and 25 columns.
All rows and columns eliminated.
Presolve time = 0.00 sec. (0.01 ticks)
************* QP 1  *******************
Parallel mode: deterministic, using up to 8 threads for concurrent optimization.

Dual simplex solved model.

********************* Iteration  41 ********************
************* LP 1  ******************
Parallel mode: deterministic, using up to 8 threads for concurrent optimization.
Tried aggregator 1 time.
LP Presolve eliminated 19 rows and 25 columns.
All rows and columns eliminated.
Presolve time = 0.00 sec. (0.01 ticks)
************* QP 1  *******************
Parallel mode: deterministic, using up to 8 threads for concurrent optimization.

Dual simplex solved model.

********************* Iteration  42 ********************
************* LP 1  ******************
Parallel mode: deterministic, using up to 8 threads for concurrent optimization.
Tried aggregator 1 time.
LP Presolve eliminated 19 rows and 25 columns.
All rows and columns eliminated.
Presolve time = 0.00 sec. (0.01 ticks)
************* QP 1  *******************
Parallel mode: deterministic, using up to 8 threads for concurrent optimization.

Dual simplex solved model.

********************* Iteration  43 ********************
************* LP 1  ******************
Parallel mode: deterministic, using up to 8 threads for concurrent optimization.
Tried aggregator 1 time.
LP Presolve eliminated 19 rows and 25 columns.
All rows and columns eliminated.
Presolve time = 0.00 sec. (0.01 ticks)
************* QP 1  *******************
Parallel mode: deterministic, using up to 8 threads for concurrent optimization.

Dual simplex solved model.

********************* Iteration  44 ********************
************* LP 1  ******************
Parallel mode: deterministic, using up to 8 threads for concurrent optimization.
Tried aggregator 1 time.
LP Presolve eliminated 19 rows and 25 columns.
All rows and columns eliminated.
Presolve time = 0.00 sec. (0.01 ticks)
************* QP 1  *******************
Parallel mode: deterministic, using up to 8 threads for concurrent optimization.

Dual simplex solved model.

********************* Iteration  45 ********************
************* LP 1  ******************
Parallel mode: deterministic, using up to 8 threads for concurrent optimization.
Tried aggregator 1 time.
LP Presolve eliminated 19 rows and 25 columns.
All rows and columns eliminated.
Presolve time = 0.00 sec. (0.01 ticks)
************* QP 1  *******************
Parallel mode: deterministic, using up to 8 threads for concurrent optimization.

Dual simplex solved model.

